<number of tasks>
20

<cycle time>
1000

<order strength>
0,3


<task times>
1 51
2 219
3 264
4 51
5 187
6 288
7 380
8 117
9 170
10 173
11 116
12 485
13 110
14 254
15 59
16 218
17 99
18 205
19 257
20 282

<precedence relations>
1,14
2,8
3,7
7,14
8,9
8,10
8,11
8,12
8,13
9,14
10,14
12,15
13,16
14,17
14,18
14,19
14,20

<end>
